c Grid graph 4x13
p edge 52 87
e 1 2
e 1 14
e 2 3
e 2 15
e 3 4
e 3 16
e 4 5
e 4 17
e 5 6
e 5 18
e 6 7
e 6 19
e 7 8
e 7 20
e 8 9
e 8 21
e 9 10
e 9 22
e 10 11
e 10 23
e 11 12
e 11 24
e 12 13
e 12 25
e 13 26
e 14 15
e 14 27
e 15 16
e 15 28
e 16 17
e 16 29
e 17 18
e 17 30
e 18 19
e 18 31
e 19 20
e 19 32
e 20 21
e 20 33
e 21 22
e 21 34
e 22 23
e 22 35
e 23 24
e 23 36
e 24 25
e 24 37
e 25 26
e 25 38
e 26 39
e 27 28
e 27 40
e 28 29
e 28 41
e 29 30
e 29 42
e 30 31
e 30 43
e 31 32
e 31 44
e 32 33
e 32 45
e 33 34
e 33 46
e 34 35
e 34 47
e 35 36
e 35 48
e 36 37
e 36 49
e 37 38
e 37 50
e 38 39
e 38 51
e 39 52
e 40 41
e 41 42
e 42 43
e 43 44
e 44 45
e 45 46
e 46 47
e 47 48
e 48 49
e 49 50
e 50 51
e 51 52
